25332.0
1 1 0 0 1 1 0 0 1 0 1 0 1 0 0 0 0 0 1 1 0 1 0 0 1 1 0 0 1 0 
19 61 81 94 98 105 118 129 151 153 161 176 188 
13 16 95 109 134 136 159 160 168 170 


10 28 32 43 60 84 104 106 111 124 167 174 178 193 
22 66 74 77 87 145 156 164 166 180 190 197 


36 37 41 44 46 54 57 63 64 73 78 82 115 119 120 135 137 154 158 171 185 

12 17 24 49 75 76 80 85 133 139 152 162 173 177 179 187 198 

5 35 42 55 71 97 113 114 127 140 142 184 195 





0 8 15 20 25 40 58 62 70 103 112 141 148 
1 27 30 31 45 48 67 72 86 91 110 123 128 172 183 192 199 

2 4 6 21 29 33 39 47 53 101 125 126 147 157 169 175 181 182 189 


3 18 23 26 38 50 51 52 79 88 107 108 131 146 150 163 165 191 
56 59 65 69 83 89 92 93 102 117 121 132 143 144 149 194 196 


7 9 11 14 34 68 90 96 99 100 116 122 130 138 155 186 

